54482 -1 36380 210969 54482 1
55856 -1 34361 198816 55856 1
56316 -1 43298 249901 56316 0.96
55036 -1 37175 216901 55036 1
54964 -1 36469 211273 54964 0.92
55584 -1 38890 224552 55584 1
55948 -1 32126 185934 55948 0.98
55250 -1 36577 213077 55250 1
55914 -1 39683 228723 55914 0.96
55456 -1 39313 228174 55456 0.98
